100
100
98
97
94
92
91
91
90
89
86
85
84
83
82
81
78
76
75
73
73
72
72
71
70
70
69
69
66
64
60
60
59
58
57
56
55
54
53
52
52
51
50
49
49
48
47
47
45
43
43
43
42
42
42
42
40
39
39
36
35
34
34
34
33
32
30
30
30
29
29
28
25
23
22
22
22
22
22
20
20
19
19
18
16
16
16
15
15
15
13
12
12
10
9
8
6
5
4
4
2
2
